WARNING: for repeatability, setting FPU to use double precision
============================[ Problem Statistics ]=============================
|                                                                             |
|  Number of variables:           328                                         |
|  Number of clauses:            7199                                         |
|  Parse time:                   0.00 s                                       |
|                                                                             |
c ============================[ Search Statistics ]==============================
c | Conflicts |          ORIGINAL         |          LEARNT          | Progress |
c |           |    Vars  Clauses Literals |    Limit  Clauses Lit/Cl |          |
c ===============================================================================
c Switched to VSIDS.
c Switched to LRB.
c Switched to VSIDS.
c Switched to LRB.
c Switched to VSIDS.
c Switched to LRB.
c Switched to VSIDS.
c Switched to LRB.
c Switched to VSIDS.
c Switched to LRB.
c Switched to VSIDS.
c Switched to LRB.
c Switched to VSIDS.
c Switched to LRB.
CAREFUL: the definition is falsified in conflict 18066809 at DL 18 (has happened 1 times)
c Switched to VSIDS.
c Switched to LRB.
c Switched to VSIDS.
c Switched to LRB.
c Switched to VSIDS.
c Switched to LRB.
c Switched to VSIDS.
c Switched to LRB.
c Switched to VSIDS.
c Switched to LRB.
c Switched to VSIDS.
c Switched to LRB.
c ===============================================================================
restarts                  : 64813
conflicts                 : 39460826       (11385 /sec)
decisions                 : 105451912      (0.00 % random) (30425 /sec)
propagations              : 3529775908     (1018424 /sec)
conflict literals         : 787133278      (34.72 % deleted)

conflicts w/ DIP found    : 23222052       (58.85 % of conflicts)
conflicts w/ dangerous DIP: 1              (0.00 % of conflicts)
conflicts w/ DIP-learning : 2045464        (5.18 % of conflicts)
decisions on ext vars     : 1001552        (0.95 % of decisions)
total ext vars            : 338704      
tried delete ext vars     : 336972      
deleted ext vars          : 336972      
max ext vars              : 6092        

Memory used               : 315.00 MB
CPU time                  : 3465.92 s
DIP computation time      : 176.367 s (5.09 % of total time)
ER_sel time               : 33.5729 s
ER_add time               : 0.984473 s
ER_delC time              : 0 s
ER_delV time              : 9.68321 s
ER_sub time               : 40.4755 s
ER_stat time              : 0 s

INDETERMINATE
